48 32 24 59 95 88 73 76 16 14 63 21 77 84 56 10 92 57 53 45 65 34 58 89 87 97 3 62 12 72 60 11 50 35 79 17 9 8 70 36 51 69 39 30 18 81 61 22 2 1 74 20 55 46 64 93 23 90 26 19 31 94 0 80 78 43 41 27 86 29 6 37 13 99 75 67 49 98 83 42 33 25 38 96 52 54 47 28 44 68 4 15 71 85 91 7 66 82 40 5